Problem:    TempoDenaro
Rows:       7
Columns:    5
Non-zeros:  19
Status:     OPTIMAL
Objective:  profitto = 7848 (MAXimum)

   No.   Row name   St   Activity     Lower bound   Upper bound    Marginal
------ ------------ -- ------------- ------------- ------------- -------------
     1 disponibilita[A]
                    NU            91                          91            24 
     2 disponibilita[B]
                    B           39.1                          40 
     3 disponibilita[C]
                    NU            59                          59            96 
     4 manodopera   NU             0                          -0         < eps
     5 Def1         NS             0            -0             =             1 
     6 profitto     B           7848                             
     7 Parametric   B           6.54                        1300 

   No. Column name  St   Activity     Lower bound   Upper bound    Marginal
------ ------------ -- ------------- ------------- ------------- -------------
     1 x[1]         B           0.14             0               
     2 x[2]         NL             0             0                        -428 
     3 x[3]         B            6.4             0               
     4 f1           B           7848                             
     5 f2           B           6.54                             

Karush-Kuhn-Tucker optimality conditions:

KKT.PE: max.abs.err = 7.11e-015 on row 3
        max.rel.err = 1.26e-016 on row 4
        High quality

KKT.PB: max.abs.err = 0.00e+000 on row 0
        max.rel.err = 0.00e+000 on row 0
        High quality

KKT.DE: max.abs.err = 0.00e+000 on column 0
        max.rel.err = 0.00e+000 on column 0
        High quality

KKT.DB: max.abs.err = 0.00e+000 on row 0
        max.rel.err = 0.00e+000 on row 0
        High quality

End of output
